PreSolver/instances/dataset_final_sat/sat_3color_90_300_38965.cnf
c description: Graph 3-Colorability of graph: 
c generator: CNFgen (0.9.0)
c copyright: (C) 2012-2020 Massimo Lauria <massimo.lauria@uniroma1.it>
c url: https://massimolauria.net/cnfgen
c
p cnf 90 300
1 2 3 0
-1 -2 0
-1 -3 0
-2 -3 0
4 5 6 0
-4 -5 0
-4 -6 0
-5 -6 0
7 8 9 0
-7 -8 0
-7 -9 0
-8 -9 0
10 11 12 0
-10 -11 0
-10 -12 0
-11 -12 0
13 14 15 0
-13 -14 0
-13 -15 0
-14 -15 0
16 17 18 0
-16 -17 0
-16 -18 0
-17 -18 0
19 20 21 0
-19 -20 0
-19 -21 0
-20 -21 0
22 23 24 0
-22 -23 0
-22 -24 0
-23 -24 0
25 26 27 0
-25 -26 0
-25 -27 0
-26 -27 0
28 29 30 0
-28 -29 0
-28 -30 0
-29 -30 0
31 32 33 0
-31 -32 0
-31 -33 0
-32 -33 0
34 35 36 0
-34 -35 0
-34 -36 0
-35 -36 0
37 38 39 0
-37 -38 0
-37 -39 0
-38 -39 0
40 41 42 0
-40 -41 0
-40 -42 0
-41 -42 0
43 44 45 0
-43 -44 0
-43 -45 0
-44 -45 0
46 47 48 0
-46 -47 0
-46 -48 0
-47 -48 0
49 50 51 0
-49 -50 0
-49 -51 0
-50 -51 0
52 53 54 0
-52 -53 0
-52 -54 0
-53 -54 0
55 56 57 0
-55 -56 0
-55 -57 0
-56 -57 0
58 59 60 0
-58 -59 0
-58 -60 0
-59 -60 0
61 62 63 0
-61 -62 0
-61 -63 0
-62 -63 0
64 65 66 0
-64 -65 0
-64 -66 0
-65 -66 0
67 68 69 0
-67 -68 0
-67 -69 0
-68 -69 0
70 71 72 0
-70 -71 0
-70 -72 0
-71 -72 0
73 74 75 0
-73 -74 0
-73 -75 0
-74 -75 0
76 77 78 0
-76 -77 0
-76 -78 0
-77 -78 0
79 80 81 0
-79 -80 0
-79 -81 0
-80 -81 0
82 83 84 0
-82 -83 0
-82 -84 0
-83 -84 0
85 86 87 0
-85 -86 0
-85 -87 0
-86 -87 0
88 89 90 0
-88 -89 0
-88 -90 0
-89 -90 0
-1 -4 0
-2 -5 0
-3 -6 0
-1 -64 0
-2 -65 0
-3 -66 0
-1 -67 0
-2 -68 0
-3 -69 0
-1 -88 0
-2 -89 0
-3 -90 0
-4 -22 0
-5 -23 0
-6 -24 0
-4 -88 0
-5 -89 0
-6 -90 0
-7 -16 0
-8 -17 0
-9 -18 0
-7 -28 0
-8 -29 0
-9 -30 0
-7 -61 0
-8 -62 0
-9 -63 0
-7 -76 0
-8 -77 0
-9 -78 0
-7 -82 0
-8 -83 0
-9 -84 0
-10 -40 0
-11 -41 0
-12 -42 0
-10 -49 0
-11 -50 0
-12 -51 0
-10 -55 0
-11 -56 0
-12 -57 0
-10 -61 0
-11 -62 0
-12 -63 0
-10 -67 0
-11 -68 0
-12 -69 0
-10 -79 0
-11 -80 0
-12 -81 0
-13 -16 0
-14 -17 0
-15 -18 0
-13 -22 0
-14 -23 0
-15 -24 0
-13 -40 0
-14 -41 0
-15 -42 0
-16 -46 0
-17 -47 0
-18 -48 0
-16 -61 0
-17 -62 0
-18 -63 0
-16 -64 0
-17 -65 0
-18 -66 0
-16 -82 0
-17 -83 0
-18 -84 0
-16 -88 0
-17 -89 0
-18 -90 0
-19 -31 0
-20 -32 0
-21 -33 0
-22 -25 0
-23 -26 0
-24 -27 0
-22 -82 0
-23 -83 0
-24 -84 0
-25 -31 0
-26 -32 0
-27 -33 0
-25 -37 0
-26 -38 0
-27 -39 0
-25 -55 0
-26 -56 0
-27 -57 0
-25 -64 0
-26 -65 0
-27 -66 0
-28 -40 0
-29 -41 0
-30 -42 0
-28 -49 0
-29 -50 0
-30 -51 0
-28 -64 0
-29 -65 0
-30 -66 0
-28 -67 0
-29 -68 0
-30 -69 0
-28 -79 0
-29 -80 0
-30 -81 0
-31 -34 0
-32 -35 0
-33 -36 0
-31 -55 0
-32 -56 0
-33 -57 0
-31 -61 0
-32 -62 0
-33 -63 0
-31 -67 0
-32 -68 0
-33 -69 0
-34 -85 0
-35 -86 0
-36 -87 0
-37 -46 0
-38 -47 0
-39 -48 0
-37 -79 0
-38 -80 0
-39 -81 0
-37 -85 0
-38 -86 0
-39 -87 0
-40 -46 0
-41 -47 0
-42 -48 0
-40 -58 0
-41 -59 0
-42 -60 0
-40 -79 0
-41 -80 0
-42 -81 0
-43 -79 0
-44 -80 0
-45 -81 0
-43 -82 0
-44 -83 0
-45 -84 0
-43 -85 0
-44 -86 0
-45 -87 0
-46 -58 0
-47 -59 0
-48 -60 0
-46 -85 0
-47 -86 0
-48 -87 0
-49 -58 0
-50 -59 0
-51 -60 0
-49 -64 0
-50 -65 0
-51 -66 0
-49 -73 0
-50 -74 0
-51 -75 0
-55 -58 0
-56 -59 0
-57 -60 0
-58 -61 0
-59 -62 0
-60 -63 0
-58 -73 0
-59 -74 0
-60 -75 0
-73 -88 0
-74 -89 0
-75 -90 0